p tw 20 48
1 13
1 15
1 4
2 11
2 17
2 3
2 4
2 5
2 10
11 13
11 14
12 16
12 18
14 17
14 18
15 16
15 17
15 19
16 17
16 18
3 16
3 5
3 6
4 13
4 14
4 16
4 18
4 20
4 6
5 13
5 15
5 17
5 18
5 20
5 9
6 13
6 14
6 16
6 19
6 9
6 10
7 19
8 13
9 15
9 10
10 11
10 12
10 19
